263 5
10 10 10 10 10 

0 0 0 0 0 0 5 2 14 26 38 50 
0 0 0 0 0 0 1 3 
3 0 1 0 0 0 3 9 5 4 
3 0 6 0 0 0 2 7 6 
9 0 2 0 0 0 2 7 6 
6 0 9 0 0 0 2 12 11 
3 0 6 0 0 0 1 8 
3 0 7 0 0 0 1 10 
7 0 4 0 0 0 1 10 
5 0 6 0 0 0 1 13 
6 0 3 0 0 0 1 13 
3 0 6 0 0 0 1 13 
0 0 0 0 0 0 1 62 
0 0 0 0 0 0 3 15 17 20 
9 0 1 0 0 0 3 24 18 16 
6 0 5 0 0 0 2 23 19 
3 0 3 0 0 0 2 24 18 
9 0 4 0 0 0 2 23 22 
5 0 7 0 0 0 1 21 
8 0 6 0 0 0 1 21 
2 0 6 0 0 0 1 22 
9 0 4 0 0 0 1 25 
8 0 7 0 0 0 1 25 
4 0 7 0 0 0 1 25 
0 0 0 0 0 0 1 62 
0 0 0 0 0 0 2 27 29 
2 1 0 0 0 0 2 30 28 
7 7 0 0 0 0 3 34 32 31 
7 6 0 0 0 0 2 34 30 
8 2 0 0 0 0 2 35 33 
4 5 0 0 0 0 2 35 33 
3 9 0 0 0 0 2 36 35 
3 6 0 0 0 0 1 36 
6 7 0 0 0 0 1 35 
10 3 0 0 0 0 1 37 
10 4 0 0 0 0 1 37 
0 0 0 0 0 0 1 62 
0 0 0 0 0 0 3 39 47 48 
2 0 0 0 0 1 2 42 40 
5 0 0 0 0 5 2 45 41 
9 0 0 0 0 9 2 46 43 
1 0 0 0 0 5 2 45 44 
3 0 0 0 0 3 1 44 
5 0 0 0 0 4 1 49 
4 0 0 0 0 6 1 49 
8 0 0 0 0 5 1 49 
10 0 0 0 0 6 1 49 
5 0 0 0 0 6 1 49 
0 0 0 0 0 0 1 62 
0 0 0 0 0 0 1 51 
4 0 2 0 0 0 3 55 53 52 
10 0 3 0 0 0 3 60 59 56 
10 0 3 0 0 0 2 58 54 
3 0 7 0 0 0 1 56 
4 0 3 0 0 0 1 56 
5 0 7 0 0 0 1 57 
5 0 4 0 0 0 1 61 
3 0 7 0 0 0 1 61 
8 0 10 0 0 0 1 61 
10 0 4 0 0 0 1 61 
0 0 0 0 0 0 1 62 
0 0 0 0 0 0 5 63 75 87 99 111 
0 0 0 0 0 0 1 64 
2 0 1 0 0 0 2 66 65 
1 0 6 0 0 0 2 68 67 
9 0 6 0 0 0 2 68 67 
1 0 6 0 0 0 2 73 70 
5 0 4 0 0 0 1 69 
1 0 3 0 0 0 3 73 72 71 
1 0 6 0 0 0 2 72 71 
7 0 10 0 0 0 1 74 
6 0 5 0 0 0 1 74 
3 0 3 0 0 0 1 74 
0 0 0 0 0 0 1 123 
0 0 0 0 0 0 4 76 80 81 85 
1 0 0 1 0 0 2 83 77 
1 0 0 5 0 0 2 84 78 
5 0 0 6 0 0 1 79 
9 0 0 6 0 0 1 82 
9 0 0 3 0 0 1 83 
5 0 0 4 0 0 1 82 
3 0 0 7 0 0 1 86 
10 0 0 7 0 0 1 86 
1 0 0 6 0 0 1 86 
3 0 0 5 0 0 1 86 
0 0 0 0 0 0 1 123 
0 0 0 0 0 0 3 88 90 93 
8 0 0 1 0 0 1 89 
10 0 0 6 0 0 2 95 92 
4 0 0 9 0 0 1 91 
2 0 0 5 0 0 2 95 94 
10 0 0 4 0 0 2 97 94 
10 0 0 10 0 0 1 94 
6 0 0 4 0 0 1 96 
9 0 0 5 0 0 1 97 
6 0 0 3 0 0 1 98 
4 0 0 3 0 0 1 98 
0 0 0 0 0 0 1 123 
0 0 0 0 0 0 1 100 
7 0 0 1 0 0 2 104 101 
8 0 0 5 0 0 2 103 102 
2 0 0 6 0 0 3 108 106 105 
1 0 0 6 0 0 3 109 108 107 
10 0 0 3 0 0 2 108 105 
6 0 0 9 0 0 1 107 
3 0 0 4 0 0 1 107 
7 0 0 5 0 0 1 110 
2 0 0 5 0 0 1 110 
7 0 0 6 0 0 1 110 
0 0 0 0 0 0 1 123 
0 0 0 0 0 0 3 112 113 114 
1 0 1 0 0 0 3 117 116 115 
10 0 8 0 0 0 3 117 116 115 
10 0 5 0 0 0 2 117 116 
6 0 7 0 0 0 2 121 118 
10 0 5 0 0 0 2 121 119 
2 0 7 0 0 0 1 118 
1 0 5 0 0 0 1 119 
6 0 6 0 0 0 1 120 
7 0 2 0 0 0 1 122 
7 0 4 0 0 0 1 122 
0 0 0 0 0 0 1 123 
0 0 0 0 0 0 4 124 146 168 180 
0 0 0 0 0 0 1 125 
2 0 1 0 0 1 1 126 
4 0 3 0 0 4 3 131 128 127 
9 0 8 0 0 5 1 129 
8 0 6 0 0 6 1 129 
8 0 10 0 0 4 2 139 130 
10 0 6 0 0 5 5 144 136 134 133 132 
2 0 6 0 0 6 3 144 134 133 
7 0 6 0 0 5 1 135 
6 0 5 0 0 4 2 143 137 
3 0 9 0 0 5 2 143 137 
10 0 3 0 0 5 2 143 137 
8 0 1 0 0 4 2 143 137 
4 0 2 0 0 7 2 142 138 
3 0 2 0 0 6 2 141 140 
5 0 5 0 0 6 1 144 
2 0 4 0 0 7 1 145 
1 0 7 0 0 6 1 145 
3 0 6 0 0 5 1 145 
1 0 4 0 0 4 1 145 
3 0 6 0 0 5 1 145 
0 0 0 0 0 0 1 238 
0 0 0 0 0 0 1 147 
4 1 1 0 0 0 2 150 148 
8 5 6 0 0 0 1 149 
3 6 6 0 0 0 1 151 
10 8 4 0 0 0 1 151 
6 5 8 0 0 0 2 153 152 
9 9 6 0 0 0 3 162 158 154 
10 1 5 0 0 0 4 159 158 157 156 
3 5 5 0 0 0 3 159 156 155 
2 6 6 0 0 0 2 166 157 
9 2 5 0 0 0 4 166 165 164 163 
9 5 2 0 0 0 3 165 164 160 
9 7 4 0 0 0 2 165 163 
9 5 4 0 0 0 1 161 
1 4 5 0 0 0 1 163 
6 4 3 0 0 0 1 163 
10 4 7 0 0 0 1 164 
3 9 6 0 0 0 1 167 
8 5 6 0 0 0 1 167 
2 7 9 0 0 0 1 167 
3 2 2 0 0 0 1 167 
0 0 0 0 0 0 1 238 
0 0 0 0 0 0 2 169 170 
4 0 1 0 0 0 2 173 171 
8 0 5 0 0 0 4 178 174 173 172 
7 0 6 0 0 0 3 178 174 172 
7 0 6 0 0 0 2 177 176 
9 0 7 0 0 0 2 177 176 
8 0 3 0 0 0 1 175 
9 0 5 0 0 0 1 176 
3 0 7 0 0 0 1 179 
2 0 6 0 0 0 1 179 
6 0 4 0 0 0 1 179 
0 0 0 0 0 0 3 202 214 226 
0 0 0 0 0 0 3 181 183 192 
5 1 1 0 0 0 3 200 199 182 
3 6 6 0 0 0 4 198 197 196 184 
7 4 6 0 0 0 3 197 196 184 
9 4 4 0 0 0 1 185 
1 6 5 0 0 0 2 191 186 
9 2 6 0 0 0 2 195 187 
7 6 6 0 0 0 1 188 
6 5 4 0 0 0 1 189 
1 3 9 0 0 0 1 190 
2 3 9 0 0 0 1 193 
4 5 3 0 0 0 1 194 
6 7 7 0 0 0 1 193 
5 7 3 0 0 0 1 201 
10 6 7 0 0 0 1 201 
6 5 5 0 0 0 1 201 
6 8 2 0 0 0 1 201 
7 7 2 0 0 0 1 201 
3 5 5 0 0 0 1 201 
2 6 5 0 0 0 1 201 
4 4 5 0 0 0 1 201 
0 0 0 0 0 0 1 238 
0 0 0 0 0 0 2 203 204 
3 0 0 0 0 2 2 206 205 
3 0 0 0 0 3 2 206 205 
6 0 0 0 0 7 2 208 207 
5 0 0 0 0 3 2 208 207 
10 0 0 0 0 6 2 210 209 
10 0 0 0 0 5 2 210 209 
2 0 0 0 0 4 2 212 211 
9 0 0 0 0 10 2 212 211 
5 0 0 0 0 5 1 213 
7 0 0 0 0 5 1 213 
0 0 0 0 0 0 1 238 
0 0 0 0 0 0 3 215 216 217 
3 0 0 1 0 0 1 218 
1 0 0 4 0 0 1 218 
10 0 0 8 0 0 1 218 
6 0 0 6 0 0 2 220 219 
4 0 0 4 0 0 2 222 221 
4 0 0 5 0 0 2 224 222 
3 0 0 9 0 0 2 224 223 
1 0 0 2 0 0 1 223 
3 0 0 5 0 0 1 225 
9 0 0 6 0 0 1 225 
0 0 0 0 0 0 1 238 
0 0 0 0 0 0 2 227 228 
7 0 1 0 0 0 3 233 230 229 
9 0 5 0 0 0 3 236 233 232 
1 0 3 0 0 0 2 236 231 
6 0 8 0 0 0 2 236 232 
10 0 9 0 0 0 1 232 
7 0 9 0 0 0 2 235 234 
9 0 6 0 0 0 2 235 234 
1 0 2 0 0 0 1 237 
7 0 5 0 0 0 1 237 
4 0 2 0 0 0 1 237 
0 0 0 0 0 0 1 238 
0 0 0 0 0 0 2 239 251 
0 0 0 0 0 0 4 240 241 243 249 
7 1 0 0 0 0 1 242 
5 7 0 0 0 0 3 248 247 245 
8 8 0 0 0 0 2 247 244 
10 5 0 0 0 0 2 247 244 
2 2 0 0 0 0 1 245 
5 6 0 0 0 0 1 246 
1 4 0 0 0 0 1 250 
3 7 0 0 0 0 1 250 
3 6 0 0 0 0 1 250 
7 4 0 0 0 0 1 250 
0 0 0 0 0 0 1 263 
0 0 0 0 0 0 1 252 
2 0 0 0 0 1 3 256 254 253 
6 0 0 0 0 4 3 261 258 255 
4 0 0 0 0 4 4 261 260 258 257 
7 0 0 0 0 6 2 260 257 
6 0 0 0 0 5 1 257 
5 0 0 0 0 9 1 259 
2 0 0 0 0 4 1 259 
1 0 0 0 0 3 1 262 
4 0 0 0 0 7 1 262 
10 0 0 0 0 7 1 262 
0 0 0 0 0 0 1 263 
0 0 0 0 0 0 0 
